BAYES
529
2 2 2 2 2 2 2 2 2 2 2 2 2 2 2 2 2 2 2 2 2 2 2 2 2 2 2 2 2 2 2 2 2 2 2 2 2 2 2 2 2 2 2 2 2 2 2 2 2 2 2 2 2 2 2 2 2 2 2 2 2 2 2 2 2 2 2 2 2 2 2 2 2 2 2 2 2 2 2 2 2 2 2 2 2 2 2 2 2 2 2 2 2 2 2 2 2 2 2 2 2 2 2 2 2 2 2 2 2 2 2 2 2 2 2 2 2 2 2 2 2 2 2 2 2 2 2 2 2 2 2 2 2 2 2 2 2 2 2 2 2 2 2 2 2 2 2 2 2 2 2 2 2 2 2 2 2 2 2 2 2 2 2 2 2 2 2 2 2 2 2 2 2 2 2 2 2 2 2 2 2 2 2 2 2 2 2 2 2 2 2 2 2 2 2 2 2 2 2 2 2 2 2 2 2 2 2 2 2 2 2 2 2 2 2 2 2 2 2 2 2 2 2 2 2 2 2 2 2 2 2 2 2 2 2 2 2 2 2 2 2 2 2 2 2 2 2 2 2 2 2 2 2 2 2 2 2 2 2 2 2 2 2 2 2 2 2 2 2 2 2 2 2 2 2 2 2 2 2 2 2 2 2 2 2 2 2 2 2 2 2 2 2 2 2 2 2 2 2 2 2 2 2 2 2 2 2 2 2 2 2 2 2 2 2 2 2 2 2 2 2 2 2 2 2 2 2 2 2 2 2 2 2 2 2 2 2 2 2 2 2 2 2 2 2 2 2 2 2 2 2 2 2 2 2 2 2 2 2 2 2 2 2 2 2 2 2 2 2 2 2 2 2 2 2 2 2 2 2 2 2 2 2 2 2 2 2 2 2 2 2 2 2 2 2 2 2 2 2 2 2 2 2 2 2 2 2 2 2 2 2 2 2 2 2 2 2 2 2 2 2 2 2 2 2 2 2 2 2 2 2 2 2 2 2 2 2 2 2 2 2 2 2 2 2 2 2 2 2 2 2 2 2 2 2 2 2 2 2 2 2 2 2 2 2 2 2 2 2 2 2 2 2 2 2 2 2 2 2 2 2 2 2 2 2 2 2 2 2 2 2 2 2 2 2 2 2 2 2 2 2 2 2 2 2 2 2 2 2 2 2 2 2 2 2 2 2 2 2 2 2 2 2 2 2 2 2 2 2
529
1 0
2 0 1
2 1 2
2 2 3
2 3 4
2 4 5
2 5 6
2 6 7
2 7 8
2 8 9
2 9 10
2 10 11
2 11 12
2 12 13
2 13 14
2 14 15
2 15 16
2 16 17
2 17 18
2 18 19
2 19 20
2 20 21
2 21 22
2 0 23
3 1 23 24
3 2 24 25
3 3 25 26
3 4 26 27
3 5 27 28
3 6 28 29
3 7 29 30
3 8 30 31
3 9 31 32
3 10 32 33
3 11 33 34
3 12 34 35
3 13 35 36
3 14 36 37
3 15 37 38
3 16 38 39
3 17 39 40
3 18 40 41
3 19 41 42
3 20 42 43
3 21 43 44
3 22 44 45
2 23 46
3 24 46 47
3 25 47 48
3 26 48 49
3 27 49 50
3 28 50 51
3 29 51 52
3 30 52 53
3 31 53 54
3 32 54 55
3 33 55 56
3 34 56 57
3 35 57 58
3 36 58 59
3 37 59 60
3 38 60 61
3 39 61 62
3 40 62 63
3 41 63 64
3 42 64 65
3 43 65 66
3 44 66 67
3 45 67 68
2 46 69
3 47 69 70
3 48 70 71
3 49 71 72
3 50 72 73
3 51 73 74
3 52 74 75
3 53 75 76
3 54 76 77
3 55 77 78
3 56 78 79
3 57 79 80
3 58 80 81
3 59 81 82
3 60 82 83
3 61 83 84
3 62 84 85
3 63 85 86
3 64 86 87
3 65 87 88
3 66 88 89
3 67 89 90
3 68 90 91
2 69 92
3 70 92 93
3 71 93 94
3 72 94 95
3 73 95 96
3 74 96 97
3 75 97 98
3 76 98 99
3 77 99 100
3 78 100 101
3 79 101 102
3 80 102 103
3 81 103 104
3 82 104 105
3 83 105 106
3 84 106 107
3 85 107 108
3 86 108 109
3 87 109 110
3 88 110 111
3 89 111 112
3 90 112 113
3 91 113 114
2 92 115
3 93 115 116
3 94 116 117
3 95 117 118
3 96 118 119
3 97 119 120
3 98 120 121
3 99 121 122
3 100 122 123
3 101 123 124
3 102 124 125
3 103 125 126
3 104 126 127
3 105 127 128
3 106 128 129
3 107 129 130
3 108 130 131
3 109 131 132
3 110 132 133
3 111 133 134
3 112 134 135
3 113 135 136
3 114 136 137
2 115 138
3 116 138 139
3 117 139 140
3 118 140 141
3 119 141 142
3 120 142 143
3 121 143 144
3 122 144 145
3 123 145 146
3 124 146 147
3 125 147 148
3 126 148 149
3 127 149 150
3 128 150 151
3 129 151 152
3 130 152 153
3 131 153 154
3 132 154 155
3 133 155 156
3 134 156 157
3 135 157 158
3 136 158 159
3 137 159 160
2 138 161
3 139 161 162
3 140 162 163
3 141 163 164
3 142 164 165
3 143 165 166
3 144 166 167
3 145 167 168
3 146 168 169
3 147 169 170
3 148 170 171
3 149 171 172
3 150 172 173
3 151 173 174
3 152 174 175
3 153 175 176
3 154 176 177
3 155 177 178
3 156 178 179
3 157 179 180
3 158 180 181
3 159 181 182
3 160 182 183
2 161 184
3 162 184 185
3 163 185 186
3 164 186 187
3 165 187 188
3 166 188 189
3 167 189 190
3 168 190 191
3 169 191 192
3 170 192 193
3 171 193 194
3 172 194 195
3 173 195 196
3 174 196 197
3 175 197 198
3 176 198 199
3 177 199 200
3 178 200 201
3 179 201 202
3 180 202 203
3 181 203 204
3 182 204 205
3 183 205 206
2 184 207
3 185 207 208
3 186 208 209
3 187 209 210
3 188 210 211
3 189 211 212
3 190 212 213
3 191 213 214
3 192 214 215
3 193 215 216
3 194 216 217
3 195 217 218
3 196 218 219
3 197 219 220
3 198 220 221
3 199 221 222
3 200 222 223
3 201 223 224
3 202 224 225
3 203 225 226
3 204 226 227
3 205 227 228
3 206 228 229
2 207 230
3 208 230 231
3 209 231 232
3 210 232 233
3 211 233 234
3 212 234 235
3 213 235 236
3 214 236 237
3 215 237 238
3 216 238 239
3 217 239 240
3 218 240 241
3 219 241 242
3 220 242 243
3 221 243 244
3 222 244 245
3 223 245 246
3 224 246 247
3 225 247 248
3 226 248 249
3 227 249 250
3 228 250 251
3 229 251 252
2 230 253
3 231 253 254
3 232 254 255
3 233 255 256
3 234 256 257
3 235 257 258
3 236 258 259
3 237 259 260
3 238 260 261
3 239 261 262
3 240 262 263
3 241 263 264
3 242 264 265
3 243 265 266
3 244 266 267
3 245 267 268
3 246 268 269
3 247 269 270
3 248 270 271
3 249 271 272
3 250 272 273
3 251 273 274
3 252 274 275
2 253 276
3 254 276 277
3 255 277 278
3 256 278 279
3 257 279 280
3 258 280 281
3 259 281 282
3 260 282 283
3 261 283 284
3 262 284 285
3 263 285 286
3 264 286 287
3 265 287 288
3 266 288 289
3 267 289 290
3 268 290 291
3 269 291 292
3 270 292 293
3 271 293 294
3 272 294 295
3 273 295 296
3 274 296 297
3 275 297 298
2 276 299
3 277 299 300
3 278 300 301
3 279 301 302
3 280 302 303
3 281 303 304
3 282 304 305
3 283 305 306
3 284 306 307
3 285 307 308
3 286 308 309
3 287 309 310
3 288 310 311
3 289 311 312
3 290 312 313
3 291 313 314
3 292 314 315
3 293 315 316
3 294 316 317
3 295 317 318
3 296 318 319
3 297 319 320
3 298 320 321
2 299 322
3 300 322 323
3 301 323 324
3 302 324 325
3 303 325 326
3 304 326 327
3 305 327 328
3 306 328 329
3 307 329 330
3 308 330 331
3 309 331 332
3 310 332 333
3 311 333 334
3 312 334 335
3 313 335 336
3 314 336 337
3 315 337 338
3 316 338 339
3 317 339 340
3 318 340 341
3 319 341 342
3 320 342 343
3 321 343 344
2 322 345
3 323 345 346
3 324 346 347
3 325 347 348
3 326 348 349
3 327 349 350
3 328 350 351
3 329 351 352
3 330 352 353
3 331 353 354
3 332 354 355
3 333 355 356
3 334 356 357
3 335 357 358
3 336 358 359
3 337 359 360
3 338 360 361
3 339 361 362
3 340 362 363
3 341 363 364
3 342 364 365
3 343 365 366
3 344 366 367
2 345 368
3 346 368 369
3 347 369 370
3 348 370 371
3 349 371 372
3 350 372 373
3 351 373 374
3 352 374 375
3 353 375 376
3 354 376 377
3 355 377 378
3 356 378 379
3 357 379 380
3 358 380 381
3 359 381 382
3 360 382 383
3 361 383 384
3 362 384 385
3 363 385 386
3 364 386 387
3 365 387 388
3 366 388 389
3 367 389 390
2 368 391
3 369 391 392
3 370 392 393
3 371 393 394
3 372 394 395
3 373 395 396
3 374 396 397
3 375 397 398
3 376 398 399
3 377 399 400
3 378 400 401
3 379 401 402
3 380 402 403
3 381 403 404
3 382 404 405
3 383 405 406
3 384 406 407
3 385 407 408
3 386 408 409
3 387 409 410
3 388 410 411
3 389 411 412
3 390 412 413
2 391 414
3 392 414 415
3 393 415 416
3 394 416 417
3 395 417 418
3 396 418 419
3 397 419 420
3 398 420 421
3 399 421 422
3 400 422 423
3 401 423 424
3 402 424 425
3 403 425 426
3 404 426 427
3 405 427 428
3 406 428 429
3 407 429 430
3 408 430 431
3 409 431 432
3 410 432 433
3 411 433 434
3 412 434 435
3 413 435 436
2 414 437
3 415 437 438
3 416 438 439
3 417 439 440
3 418 440 441
3 419 441 442
3 420 442 443
3 421 443 444
3 422 444 445
3 423 445 446
3 424 446 447
3 425 447 448
3 426 448 449
3 427 449 450
3 428 450 451
3 429 451 452
3 430 452 453
3 431 453 454
3 432 454 455
3 433 455 456
3 434 456 457
3 435 457 458
3 436 458 459
2 437 460
3 438 460 461
3 439 461 462
3 440 462 463
3 441 463 464
3 442 464 465
3 443 465 466
3 444 466 467
3 445 467 468
3 446 468 469
3 447 469 470
3 448 470 471
3 449 471 472
3 450 472 473
3 451 473 474
3 452 474 475
3 453 475 476
3 454 476 477
3 455 477 478
3 456 478 479
3 457 479 480
3 458 480 481
3 459 481 482
2 460 483
3 461 483 484
3 462 484 485
3 463 485 486
3 464 486 487
3 465 487 488
3 466 488 489
3 467 489 490
3 468 490 491
3 469 491 492
3 470 492 493
3 471 493 494
3 472 494 495
3 473 495 496
3 474 496 497
3 475 497 498
3 476 498 499
3 477 499 500
3 478 500 501
3 479 501 502
3 480 502 503
3 481 503 504
3 482 504 505
2 483 506
3 484 506 507
3 485 507 508
3 486 508 509
3 487 509 510
3 488 510 511
3 489 511 512
3 490 512 513
3 491 513 514
3 492 514 515
3 493 515 516
3 494 516 517
3 495 517 518
3 496 518 519
3 497 519 520
3 498 520 521
3 499 521 522
3 500 522 523
3 501 523 524
3 502 524 525
3 503 525 526
3 504 526 527
3 505 527 528

2
0.102462 0.897538
4
1.0 0.0 0.0 1.0
4
0.0 1.0 1.0 0.0
4
0.752389 0.247611 0.130244 0.869756
4
1.0 0.0 0.0 1.0
4
1.0 0.0 0.0 1.0
4
0.221074 0.778926 0.0346334 0.965367
4
1.0 0.0 0.0 1.0
4
0.0 1.0 1.0 0.0
4
1.0 0.0 0.0 1.0
4
1.0 0.0 0.0 1.0
4
0.0481162 0.951884 0.0374379 0.962562
4
1.0 0.0 0.0 1.0
4
1.0 0.0 0.0 1.0
4
0.0 1.0 1.0 0.0
4
1.0 0.0 0.0 1.0
4
0.0 1.0 1.0 0.0
4
0.843599 0.156401 0.20816 0.79184
4
1.0 0.0 0.0 1.0
4
1.0 0.0 0.0 1.0
4
1.0 0.0 0.0 1.0
4
0.837041 0.162959 0.571589 0.428411
4
1.0 0.0 0.0 1.0
4
0.253652 0.746348 0.0415777 0.958422
8
0.0 1.0 1.0 0.0 1.0 0.0 0.0 1.0
8
0.0 1.0 0.0 1.0 1.0 0.0 0.0 1.0
8
0.0 1.0 0.0 1.0 0.0 1.0 1.0 0.0
8
0.356025 0.643975 0.440648 0.559352 0.505297 0.494703 0.963734 0.0362658
8
1.0 0.0 0.0 1.0 0.0 1.0 0.0 1.0
8
0.0 1.0 1.0 0.0 0.0 1.0 1.0 0.0
8
0.0 1.0 1.0 0.0 0.0 1.0 1.0 0.0
8
1.0 0.0 1.0 0.0 1.0 0.0 0.0 1.0
8
1.0 0.0 1.0 0.0 0.0 1.0 1.0 0.0
8
0.0 1.0 0.0 1.0 1.0 0.0 0.0 1.0
8
1.0 0.0 1.0 0.0 1.0 0.0 0.0 1.0
8
0.130175 0.869825 0.0483423 0.951658 0.0709786 0.929021 0.519053 0.480947
8
0.0 1.0 1.0 0.0 0.0 1.0 1.0 0.0
8
0.0 1.0 1.0 0.0 0.0 1.0 0.0 1.0
8
0.0 1.0 1.0 0.0 1.0 0.0 1.0 0.0
8
1.0 0.0 0.0 1.0 0.0 1.0 0.0 1.0
8
0.0 1.0 1.0 0.0 0.0 1.0 1.0 0.0
8
1.0 0.0 1.0 0.0 0.0 1.0 1.0 0.0
8
0.0 1.0 1.0 0.0 1.0 0.0 0.0 1.0
8
0.0 1.0 0.0 1.0 1.0 0.0 0.0 1.0
8
0.0 1.0 0.0 1.0 0.0 1.0 1.0 0.0
8
0.0 1.0 1.0 0.0 0.0 1.0 0.0 1.0
4
1.0 0.0 0.0 1.0
8
0.0 1.0 1.0 0.0 0.0 1.0 1.0 0.0
8
1.0 0.0 1.0 0.0 1.0 0.0 0.0 1.0
8
0.0 1.0 1.0 0.0 0.0 1.0 1.0 0.0
8
0.0 1.0 0.0 1.0 0.0 1.0 1.0 0.0
8
0.0 1.0 0.0 1.0 1.0 0.0 0.0 1.0
8
0.566008 0.433992 0.0703534 0.929647 0.236273 0.763727 0.80096 0.19904
8
1.0 0.0 0.0 1.0 1.0 0.0 0.0 1.0
8
0.0 1.0 1.0 0.0 0.0 1.0 0.0 1.0
8
0.0 1.0 1.0 0.0 0.0 1.0 1.0 0.0
8
0.0 1.0 1.0 0.0 1.0 0.0 1.0 0.0
8
1.0 0.0 0.0 1.0 0.0 1.0 1.0 0.0
8
1.0 0.0 0.0 1.0 0.0 1.0 0.0 1.0
8
1.0 0.0 1.0 0.0 0.0 1.0 1.0 0.0
8
0.0 1.0 1.0 0.0 0.0 1.0 0.0 1.0
8
0.667856 0.332144 0.548932 0.451068 0.437261 0.562739 0.248675 0.751325
8
0.0 1.0 0.0 1.0 1.0 0.0 0.0 1.0
8
1.0 0.0 1.0 0.0 1.0 0.0 0.0 1.0
8
1.0 0.0 0.0 1.0 1.0 0.0 1.0 0.0
8
0.0 1.0 0.0 1.0 0.0 1.0 1.0 0.0
8
0.995377 0.0046227 0.392437 0.607563 0.0994939 0.900506 0.347461 0.652539
8
0.0 1.0 1.0 0.0 0.0 1.0 0.0 1.0
8
1.0 0.0 0.0 1.0 0.0 1.0 1.0 0.0
4
0.0 1.0 1.0 0.0
8
0.375013 0.624987 0.879709 0.120291 0.442241 0.557759 0.258231 0.741769
8
0.0 1.0 1.0 0.0 0.0 1.0 0.0 1.0
8
1.0 0.0 0.0 1.0 0.0 1.0 1.0 0.0
8
1.0 0.0 0.0 1.0 1.0 0.0 1.0 0.0
8
0.977272 0.0227276 0.558757 0.441243 0.848073 0.151927 0.193642 0.806358
8
1.0 0.0 1.0 0.0 0.0 1.0 0.0 1.0
8
0.0 1.0 1.0 0.0 1.0 0.0 0.0 1.0
8
0.450594 0.549406 0.397168 0.602832 0.746251 0.253749 0.876348 0.123652
8
0.350984 0.649016 0.926945 0.0730548 0.655512 0.344488 0.318187 0.681813
8
0.38893 0.61107 0.677827 0.322173 0.956848 0.0431523 0.46981 0.53019
8
1.0 0.0 1.0 0.0 1.0 0.0 0.0 1.0
8
0.0 1.0 1.0 0.0 1.0 0.0 0.0 1.0
8
1.0 0.0 0.0 1.0 1.0 0.0 0.0 1.0
8
0.0 1.0 1.0 0.0 1.0 0.0 1.0 0.0
8
0.0 1.0 0.0 1.0 0.0 1.0 1.0 0.0
8
0.115202 0.884798 0.882933 0.117067 0.519447 0.480553 0.0720494 0.927951
8
1.0 0.0 0.0 1.0 1.0 0.0 0.0 1.0
8
1.0 0.0 0.0 1.0 1.0 0.0 1.0 0.0
8
1.0 0.0 0.0 1.0 0.0 1.0 0.0 1.0
8
1.0 0.0 0.0 1.0 1.0 0.0 0.0 1.0
8
1.0 0.0 0.0 1.0 0.0 1.0 1.0 0.0
8
0.880787 0.119213 0.572087 0.427913 0.671994 0.328006 0.400234 0.599766
4
1.0 0.0 0.0 1.0
8
1.0 0.0 1.0 0.0 0.0 1.0 1.0 0.0
8
1.0 0.0 1.0 0.0 1.0 0.0 0.0 1.0
8
0.0 1.0 0.0 1.0 0.0 1.0 1.0 0.0
8
0.752506 0.247494 0.967974 0.0320259 0.415858 0.584142 0.986339 0.0136607
8
0.0 1.0 1.0 0.0 0.0 1.0 0.0 1.0
8
1.0 0.0 0.0 1.0 1.0 0.0 0.0 1.0
8
0.0 1.0 1.0 0.0 0.0 1.0 0.0 1.0
8
0.0 1.0 1.0 0.0 1.0 0.0 1.0 0.0
8
0.678142 0.321858 0.698104 0.301896 0.329564 0.670436 0.578267 0.421733
8
1.0 0.0 0.0 1.0 0.0 1.0 0.0 1.0
8
1.0 0.0 0.0 1.0 0.0 1.0 0.0 1.0
8
0.0 1.0 1.0 0.0 0.0 1.0 1.0 0.0
8
0.0 1.0 1.0 0.0 1.0 0.0 1.0 0.0
8
1.0 0.0 0.0 1.0 0.0 1.0 1.0 0.0
8
0.0 1.0 0.0 1.0 1.0 0.0 0.0 1.0
8
0.0 1.0 0.0 1.0 1.0 0.0 0.0 1.0
8
0.0 1.0 1.0 0.0 0.0 1.0 0.0 1.0
8
0.0 1.0 0.0 1.0 0.0 1.0 1.0 0.0
8
0.0 1.0 0.0 1.0 0.0 1.0 1.0 0.0
8
0.923993 0.0760066 0.456137 0.543863 0.348364 0.651636 0.891292 0.108708
8
0.516334 0.483666 0.556695 0.443305 0.707534 0.292466 0.262572 0.737428
8
1.0 0.0 0.0 1.0 0.0 1.0 0.0 1.0
4
0.0 1.0 1.0 0.0
8
0.0 1.0 0.0 1.0 1.0 0.0 0.0 1.0
8
0.753001 0.246999 0.474012 0.525988 0.329556 0.670444 0.765924 0.234076
8
0.169575 0.830425 0.579304 0.420696 0.822554 0.177446 0.0935679 0.906432
8
1.0 0.0 0.0 1.0 1.0 0.0 1.0 0.0
8
0.0 1.0 1.0 0.0 1.0 0.0 0.0 1.0
8
0.439936 0.560064 0.899724 0.100276 0.145204 0.854796 0.0987462 0.901254
8
0.0 1.0 0.0 1.0 1.0 0.0 0.0 1.0
8
0.895538 0.104462 0.727522 0.272478 0.431185 0.568815 0.225094 0.774906
8
0.0 1.0 1.0 0.0 1.0 0.0 0.0 1.0
8
1.0 0.0 1.0 0.0 1.0 0.0 0.0 1.0
8
1.0 0.0 0.0 1.0 0.0 1.0 1.0 0.0
8
0.66885 0.33115 0.0760168 0.923983 0.123711 0.876289 0.767596 0.232404
8
1.0 0.0 0.0 1.0 1.0 0.0 0.0 1.0
8
0.485217 0.514783 0.137876 0.862124 0.242134 0.757866 0.710311 0.289689
8
0.0 1.0 0.0 1.0 0.0 1.0 1.0 0.0
8
0.243769 0.756231 0.0663128 0.933687 0.872947 0.127053 0.319694 0.680306
8
0.0 1.0 1.0 0.0 0.0 1.0 1.0 0.0
8
0.0 1.0 1.0 0.0 1.0 0.0 0.0 1.0
8
0.0 1.0 1.0 0.0 1.0 0.0 0.0 1.0
8
1.0 0.0 1.0 0.0 0.0 1.0 0.0 1.0
8
1.0 0.0 0.0 1.0 0.0 1.0 1.0 0.0
8
1.0 0.0 1.0 0.0 1.0 0.0 0.0 1.0
4
1.0 0.0 0.0 1.0
8
0.0 1.0 0.0 1.0 1.0 0.0 1.0 0.0
8
0.0 1.0 0.0 1.0 1.0 0.0 0.0 1.0
8
0.0 1.0 1.0 0.0 1.0 0.0 0.0 1.0
8
0.4352 0.5648 0.857054 0.142946 0.220129 0.779871 0.498248 0.501752
8
0.0 1.0 1.0 0.0 1.0 0.0 1.0 0.0
8
0.682573 0.317427 0.724769 0.275231 0.297081 0.702919 0.391651 0.608349
8
0.343069 0.656931 0.446172 0.553828 0.350228 0.649772 0.159008 0.840992
8
0.796625 0.203375 0.820914 0.179086 0.650772 0.349228 0.989345 0.0106551
8
0.0 1.0 0.0 1.0 1.0 0.0 0.0 1.0
8
0.223547 0.776453 0.799072 0.200928 0.843089 0.156911 0.443677 0.556323
8
1.0 0.0 1.0 0.0 0.0 1.0 1.0 0.0
8
0.0 1.0 1.0 0.0 0.0 1.0 1.0 0.0
8
0.0 1.0 1.0 0.0 0.0 1.0 0.0 1.0
8
1.0 0.0 1.0 0.0 1.0 0.0 0.0 1.0
8
1.0 0.0 1.0 0.0 0.0 1.0 0.0 1.0
8
1.0 0.0 0.0 1.0 1.0 0.0 1.0 0.0
8
0.0 1.0 0.0 1.0 1.0 0.0 1.0 0.0
8
0.0 1.0 1.0 0.0 1.0 0.0 0.0 1.0
8
0.48713 0.51287 0.307341 0.692659 0.0291594 0.970841 0.11602 0.88398
8
0.0566713 0.943329 0.395683 0.604317 0.263139 0.736861 0.0941139 0.905886
8
1.0 0.0 0.0 1.0 0.0 1.0 1.0 0.0
8
1.0 0.0 1.0 0.0 0.0 1.0 0.0 1.0
4
0.145926 0.854074 0.606013 0.393987
8
0.0 1.0 1.0 0.0 0.0 1.0 0.0 1.0
8
1.0 0.0 1.0 0.0 1.0 0.0 0.0 1.0
8
1.0 0.0 0.0 1.0 0.0 1.0 1.0 0.0
8
1.0 0.0 0.0 1.0 0.0 1.0 0.0 1.0
8
1.0 0.0 1.0 0.0 1.0 0.0 0.0 1.0
8
0.143028 0.856972 0.278695 0.721305 0.115599 0.884401 0.749041 0.250959
8
0.0 1.0 1.0 0.0 0.0 1.0 1.0 0.0
8
0.437425 0.562575 0.234499 0.765501 0.150943 0.849057 0.207653 0.792347
8
0.0 1.0 0.0 1.0 0.0 1.0 1.0 0.0
8
1.0 0.0 1.0 0.0 1.0 0.0 0.0 1.0
8
0.0 1.0 0.0 1.0 1.0 0.0 1.0 0.0
8
1.0 0.0 1.0 0.0 0.0 1.0 0.0 1.0
8
1.0 0.0 1.0 0.0 0.0 1.0 0.0 1.0
8
1.0 0.0 0.0 1.0 0.0 1.0 0.0 1.0
8
1.0 0.0 0.0 1.0 0.0 1.0 0.0 1.0
8
0.0 1.0 1.0 0.0 0.0 1.0 1.0 0.0
8
1.0 0.0 0.0 1.0 1.0 0.0 0.0 1.0
8
0.0 1.0 1.0 0.0 0.0 1.0 0.0 1.0
8
1.0 0.0 0.0 1.0 0.0 1.0 1.0 0.0
8
0.619661 0.380339 0.394899 0.605101 0.531099 0.468901 0.538718 0.461282
8
1.0 0.0 0.0 1.0 0.0 1.0 1.0 0.0
8
0.693912 0.306088 0.578181 0.421819 0.0227696 0.97723 0.430949 0.569051
4
0.155925 0.844075 0.0931771 0.906823
8
0.0 1.0 1.0 0.0 1.0 0.0 0.0 1.0
8
1.0 0.0 0.0 1.0 0.0 1.0 1.0 0.0
8
1.0 0.0 0.0 1.0 0.0 1.0 0.0 1.0
8
1.0 0.0 1.0 0.0 1.0 0.0 0.0 1.0
8
1.0 0.0 1.0 0.0 0.0 1.0 1.0 0.0
8
1.0 0.0 0.0 1.0 0.0 1.0 0.0 1.0
8
1.0 0.0 1.0 0.0 0.0 1.0 1.0 0.0
8
0.0 1.0 1.0 0.0 1.0 0.0 1.0 0.0
8
0.0 1.0 1.0 0.0 0.0 1.0 0.0 1.0
8
1.0 0.0 1.0 0.0 0.0 1.0 1.0 0.0
8
0.0 1.0 0.0 1.0 0.0 1.0 1.0 0.0
8
0.0863043 0.913696 0.602016 0.397984 0.344372 0.655628 0.0408017 0.959198
8
0.0 1.0 0.0 1.0 1.0 0.0 1.0 0.0
8
0.882426 0.117574 0.200085 0.799915 0.144035 0.855965 0.635892 0.364108
8
0.0 1.0 0.0 1.0 0.0 1.0 1.0 0.0
8
0.983348 0.0166523 0.0486056 0.951394 0.139915 0.860085 0.520996 0.479004
8
1.0 0.0 1.0 0.0 0.0 1.0 1.0 0.0
8
0.14943 0.85057 0.31598 0.68402 0.223263 0.776737 0.190232 0.809768
8
1.0 0.0 1.0 0.0 1.0 0.0 0.0 1.0
8
1.0 0.0 1.0 0.0 1.0 0.0 0.0 1.0
8
0.174069 0.825931 0.814299 0.185701 0.432169 0.567831 0.876406 0.123594
8
0.0 1.0 0.0 1.0 0.0 1.0 1.0 0.0
4
0.0 1.0 1.0 0.0
8
0.0 1.0 1.0 0.0 0.0 1.0 0.0 1.0
8
1.0 0.0 0.0 1.0 0.0 1.0 0.0 1.0
8
0.0 1.0 0.0 1.0 0.0 1.0 1.0 0.0
8
0.0789805 0.921019 0.150267 0.849733 0.600349 0.399651 0.25305 0.74695
8
0.0325181 0.967482 0.129456 0.870544 0.441524 0.558476 0.453875 0.546125
8
0.967088 0.0329118 0.0151458 0.984854 0.36996 0.63004 0.148686 0.851314
8
0.0 1.0 0.0 1.0 1.0 0.0 0.0 1.0
8
0.564617 0.435383 0.520836 0.479164 0.371948 0.628052 0.583008 0.416992
8
0.0 1.0 0.0 1.0 1.0 0.0 1.0 0.0
8
1.0 0.0 0.0 1.0 0.0 1.0 1.0 0.0
8
0.0 1.0 0.0 1.0 0.0 1.0 1.0 0.0
8
1.0 0.0 0.0 1.0 1.0 0.0 1.0 0.0
8
0.0 1.0 0.0 1.0 1.0 0.0 0.0 1.0
8
0.0 1.0 0.0 1.0 1.0 0.0 1.0 0.0
8
1.0 0.0 1.0 0.0 0.0 1.0 1.0 0.0
8
0.0 1.0 1.0 0.0 0.0 1.0 0.0 1.0
8
0.0 1.0 0.0 1.0 0.0 1.0 1.0 0.0
8
1.0 0.0 0.0 1.0 1.0 0.0 1.0 0.0
8
1.0 0.0 1.0 0.0 0.0 1.0 0.0 1.0
8
0.106784 0.893216 0.671144 0.328856 0.415277 0.584723 0.416073 0.583927
8
0.750603 0.249397 0.570472 0.429528 0.0140324 0.985968 0.182815 0.817185
8
0.542356 0.457644 0.790893 0.209107 0.729585 0.270415 0.180984 0.819016
4
0.849131 0.150869 0.962437 0.0375632
8
0.0 1.0 1.0 0.0 1.0 0.0 0.0 1.0
8
1.0 0.0 1.0 0.0 1.0 0.0 0.0 1.0
8
0.929924 0.0700756 0.808749 0.191251 0.823258 0.176742 0.0367082 0.963292
8
0.0 1.0 1.0 0.0 0.0 1.0 1.0 0.0
8
1.0 0.0 1.0 0.0 0.0 1.0 1.0 0.0
8
0.711058 0.288942 0.212931 0.787069 0.790733 0.209267 0.56019 0.43981
8
1.0 0.0 1.0 0.0 0.0 1.0 0.0 1.0
8
0.0 1.0 1.0 0.0 0.0 1.0 1.0 0.0
8
0.605355 0.394645 0.325883 0.674117 0.580251 0.419749 0.428614 0.571386
8
1.0 0.0 1.0 0.0 0.0 1.0 1.0 0.0
8
0.0 1.0 1.0 0.0 0.0 1.0 1.0 0.0
8
0.0 1.0 1.0 0.0 0.0 1.0 0.0 1.0
8
1.0 0.0 1.0 0.0 1.0 0.0 0.0 1.0
8
0.0 1.0 0.0 1.0 1.0 0.0 0.0 1.0
8
0.0 1.0 0.0 1.0 1.0 0.0 0.0 1.0
8
0.892464 0.107536 0.394764 0.605236 0.59302 0.40698 0.707837 0.292163
8
0.249307 0.750693 0.546463 0.453537 0.955759 0.044241 0.0775472 0.922453
8
1.0 0.0 1.0 0.0 0.0 1.0 1.0 0.0
8
0.0 1.0 0.0 1.0 0.0 1.0 1.0 0.0
8
0.0 1.0 1.0 0.0 0.0 1.0 1.0 0.0
8
1.0 0.0 1.0 0.0 1.0 0.0 0.0 1.0
8
0.866953 0.133047 0.124559 0.875441 0.288871 0.711129 0.459973 0.540027
4
0.219337 0.780663 0.70928 0.29072
8
0.0 1.0 0.0 1.0 0.0 1.0 1.0 0.0
8
0.0 1.0 0.0 1.0 1.0 0.0 0.0 1.0
8
0.0 1.0 1.0 0.0 1.0 0.0 0.0 1.0
8
0.0 1.0 1.0 0.0 1.0 0.0 1.0 0.0
8
0.322719 0.677281 0.433136 0.566864 0.834988 0.165012 0.447278 0.552722
8
0.0 1.0 0.0 1.0 1.0 0.0 0.0 1.0
8
0.0 1.0 0.0 1.0 1.0 0.0 0.0 1.0
8
1.0 0.0 0.0 1.0 0.0 1.0 1.0 0.0
8
0.710517 0.289483 0.865938 0.134062 0.079042 0.920958 0.293645 0.706355
8
1.0 0.0 0.0 1.0 1.0 0.0 1.0 0.0
8
0.0 1.0 0.0 1.0 0.0 1.0 1.0 0.0
8
0.418581 0.581419 0.394639 0.605361 0.694098 0.305902 0.422821 0.577179
8
0.0 1.0 1.0 0.0 1.0 0.0 1.0 0.0
8
1.0 0.0 0.0 1.0 1.0 0.0 1.0 0.0
8
0.117478 0.882522 0.894056 0.105944 0.73257 0.26743 0.19652 0.80348
8
0.0 1.0 0.0 1.0 1.0 0.0 1.0 0.0
8
0.79693 0.20307 0.999566 0.00043445 0.883465 0.116535 0.92055 0.0794501
8
0.0 1.0 0.0 1.0 0.0 1.0 1.0 0.0
8
0.562342 0.437658 0.140854 0.859146 0.975841 0.0241587 0.0194703 0.98053
8
1.0 0.0 1.0 0.0 1.0 0.0 0.0 1.0
8
1.0 0.0 0.0 1.0 1.0 0.0 0.0 1.0
8
0.0 1.0 0.0 1.0 1.0 0.0 0.0 1.0
4
1.0 0.0 0.0 1.0
8
0.0 1.0 1.0 0.0 1.0 0.0 0.0 1.0
8
1.0 0.0 1.0 0.0 1.0 0.0 0.0 1.0
8
1.0 0.0 0.0 1.0 0.0 1.0 0.0 1.0
8
0.0 1.0 0.0 1.0 1.0 0.0 0.0 1.0
8
1.0 0.0 0.0 1.0 0.0 1.0 1.0 0.0
8
0.0 1.0 1.0 0.0 0.0 1.0 1.0 0.0
8
0.0 1.0 0.0 1.0 0.0 1.0 1.0 0.0
8
0.0 1.0 1.0 0.0 1.0 0.0 1.0 0.0
8
0.673108 0.326892 0.24143 0.75857 0.586749 0.413251 0.466664 0.533336
8
0.163821 0.836179 0.967455 0.0325448 0.583858 0.416142 0.70749 0.29251
8
0.0 1.0 1.0 0.0 0.0 1.0 0.0 1.0
8
0.0 1.0 1.0 0.0 1.0 0.0 0.0 1.0
8
1.0 0.0 0.0 1.0 1.0 0.0 1.0 0.0
8
1.0 0.0 1.0 0.0 0.0 1.0 1.0 0.0
8
1.0 0.0 1.0 0.0 1.0 0.0 0.0 1.0
8
1.0 0.0 1.0 0.0 1.0 0.0 0.0 1.0
8
0.751191 0.248809 0.878403 0.121597 0.830422 0.169578 0.915775 0.084225
8
0.0 1.0 1.0 0.0 1.0 0.0 0.0 1.0
8
0.838515 0.161485 0.139873 0.860127 0.111003 0.888997 0.66508 0.33492
8
1.0 0.0 1.0 0.0 0.0 1.0 0.0 1.0
8
0.673372 0.326628 0.459993 0.540007 0.219388 0.780612 0.266187 0.733813
8
0.0 1.0 1.0 0.0 1.0 0.0 1.0 0.0
4
0.873561 0.126439 0.36535 0.63465
8
0.789336 0.210664 0.78304 0.21696 0.77271 0.22729 0.0912891 0.908711
8
1.0 0.0 1.0 0.0 0.0 1.0 0.0 1.0
8
0.0 1.0 1.0 0.0 0.0 1.0 1.0 0.0
8
1.0 0.0 1.0 0.0 0.0 1.0 1.0 0.0
8
0.450446 0.549554 0.423802 0.576198 0.157223 0.842777 0.473268 0.526732
8
1.0 0.0 0.0 1.0 0.0 1.0 0.0 1.0
8
1.0 0.0 1.0 0.0 1.0 0.0 0.0 1.0
8
0.0 1.0 1.0 0.0 1.0 0.0 1.0 0.0
8
1.0 0.0 1.0 0.0 0.0 1.0 0.0 1.0
8
0.523662 0.476338 0.0106241 0.989376 0.0917344 0.908266 0.654655 0.345345
8
0.542181 0.457819 0.0784579 0.921542 0.946121 0.0538791 0.0154493 0.984551
8
1.0 0.0 0.0 1.0 0.0 1.0 1.0 0.0
8
1.0 0.0 1.0 0.0 1.0 0.0 0.0 1.0
8
0.0 1.0 0.0 1.0 1.0 0.0 0.0 1.0
8
0.0 1.0 1.0 0.0 0.0 1.0 0.0 1.0
8
0.0 1.0 0.0 1.0 0.0 1.0 1.0 0.0
8
0.0 1.0 1.0 0.0 0.0 1.0 1.0 0.0
8
0.0 1.0 1.0 0.0 1.0 0.0 0.0 1.0
8
0.855403 0.144597 0.816607 0.183393 0.25184 0.74816 0.210545 0.789455
8
0.0 1.0 1.0 0.0 0.0 1.0 0.0 1.0
8
0.0 1.0 1.0 0.0 0.0 1.0 0.0 1.0
8
1.0 0.0 0.0 1.0 0.0 1.0 0.0 1.0
4
0.683137 0.316863 0.367604 0.632396
8
0.117695 0.882305 0.522776 0.477224 0.0273557 0.972644 0.627363 0.372637
8
1.0 0.0 0.0 1.0 1.0 0.0 0.0 1.0
8
1.0 0.0 1.0 0.0 1.0 0.0 0.0 1.0
8
0.0 1.0 0.0 1.0 1.0 0.0 0.0 1.0
8
0.0 1.0 0.0 1.0 0.0 1.0 1.0 0.0
8
0.0 1.0 1.0 0.0 0.0 1.0 1.0 0.0
8
1.0 0.0 1.0 0.0 0.0 1.0 1.0 0.0
8
1.0 0.0 0.0 1.0 0.0 1.0 1.0 0.0
8
0.0 1.0 0.0 1.0 0.0 1.0 1.0 0.0
8
0.0 1.0 1.0 0.0 0.0 1.0 1.0 0.0
8
0.0 1.0 1.0 0.0 0.0 1.0 0.0 1.0
8
0.0 1.0 1.0 0.0 0.0 1.0 0.0 1.0
8
1.0 0.0 0.0 1.0 1.0 0.0 1.0 0.0
8
1.0 0.0 1.0 0.0 1.0 0.0 0.0 1.0
8
0.0 1.0 0.0 1.0 0.0 1.0 1.0 0.0
8
0.578802 0.421198 0.478939 0.521061 0.00614978 0.99385 0.82689 0.17311
8
0.308212 0.691788 0.23423 0.76577 0.738819 0.261181 0.00438844 0.995612
8
0.428297 0.571703 0.772197 0.227803 0.62006 0.37994 0.413883 0.586117
8
1.0 0.0 1.0 0.0 1.0 0.0 0.0 1.0
8
0.049881 0.950119 0.425536 0.574464 0.978061 0.0219388 0.526278 0.473722
8
0.0 1.0 0.0 1.0 1.0 0.0 0.0 1.0
8
1.0 0.0 0.0 1.0 0.0 1.0 0.0 1.0
4
1.0 0.0 0.0 1.0
8
1.0 0.0 1.0 0.0 0.0 1.0 1.0 0.0
8
1.0 0.0 0.0 1.0 0.0 1.0 0.0 1.0
8
0.72406 0.27594 0.284098 0.715902 0.513473 0.486527 0.623028 0.376972
8
1.0 0.0 0.0 1.0 0.0 1.0 0.0 1.0
8
1.0 0.0 0.0 1.0 0.0 1.0 0.0 1.0
8
0.226754 0.773246 0.192379 0.807621 0.975057 0.0249426 0.306633 0.693367
8
1.0 0.0 1.0 0.0 1.0 0.0 0.0 1.0
8
0.0 1.0 0.0 1.0 0.0 1.0 1.0 0.0
8
0.0 1.0 1.0 0.0 0.0 1.0 0.0 1.0
8
0.907282 0.0927179 0.981382 0.0186179 0.766154 0.233846 0.1788 0.8212
8
0.126693 0.873307 0.426603 0.573397 0.334523 0.665477 0.18087 0.81913
8
1.0 0.0 0.0 1.0 1.0 0.0 1.0 0.0
8
1.0 0.0 1.0 0.0 1.0 0.0 0.0 1.0
8
0.0 1.0 1.0 0.0 0.0 1.0 0.0 1.0
8
1.0 0.0 0.0 1.0 1.0 0.0 0.0 1.0
8
0.0 1.0 1.0 0.0 0.0 1.0 0.0 1.0
8
1.0 0.0 1.0 0.0 0.0 1.0 1.0 0.0
8
1.0 0.0 0.0 1.0 1.0 0.0 1.0 0.0
8
0.861176 0.138824 0.270967 0.729033 0.319297 0.680703 0.700763 0.299237
8
0.0 1.0 1.0 0.0 1.0 0.0 0.0 1.0
8
1.0 0.0 0.0 1.0 0.0 1.0 0.0 1.0
8
0.542849 0.457151 0.859817 0.140183 0.786075 0.213925 0.906905 0.0930947
4
1.0 0.0 0.0 1.0
8
1.0 0.0 1.0 0.0 0.0 1.0 0.0 1.0
8
1.0 0.0 1.0 0.0 0.0 1.0 1.0 0.0
8
0.0 1.0 0.0 1.0 1.0 0.0 0.0 1.0
8
0.210809 0.789191 0.264883 0.735117 0.726774 0.273226 0.368603 0.631397
8
1.0 0.0 1.0 0.0 0.0 1.0 1.0 0.0
8
1.0 0.0 0.0 1.0 0.0 1.0 0.0 1.0
8
1.0 0.0 1.0 0.0 0.0 1.0 1.0 0.0
8
1.0 0.0 0.0 1.0 1.0 0.0 1.0 0.0
8
0.817854 0.182146 0.0402623 0.959738 0.270152 0.729848 0.115987 0.884013
8
0.0 1.0 0.0 1.0 0.0 1.0 1.0 0.0
8
1.0 0.0 0.0 1.0 1.0 0.0 1.0 0.0
8
0.0 1.0 0.0 1.0 1.0 0.0 0.0 1.0
8
0.0 1.0 1.0 0.0 0.0 1.0 0.0 1.0
8
0.0941837 0.905816 0.108762 0.891238 0.759845 0.240155 0.314668 0.685332
8
0.0 1.0 1.0 0.0 1.0 0.0 0.0 1.0
8
1.0 0.0 0.0 1.0 1.0 0.0 1.0 0.0
8
0.270706 0.729294 0.922306 0.0776936 0.199275 0.800725 0.494883 0.505117
8
0.232416 0.767584 0.790686 0.209314 0.508493 0.491507 0.635861 0.364139
8
1.0 0.0 1.0 0.0 0.0 1.0 0.0 1.0
8
0.0 1.0 0.0 1.0 1.0 0.0 1.0 0.0
8
1.0 0.0 0.0 1.0 0.0 1.0 0.0 1.0
8
1.0 0.0 1.0 0.0 0.0 1.0 0.0 1.0
4
0.368351 0.631649 0.469159 0.530841
8
0.567626 0.432374 0.964042 0.0359584 0.73006 0.26994 0.800042 0.199958
8
0.238553 0.761447 0.435902 0.564098 0.819749 0.180251 0.461922 0.538078
8
1.0 0.0 0.0 1.0 1.0 0.0 1.0 0.0
8
1.0 0.0 1.0 0.0 1.0 0.0 0.0 1.0
8
0.0 1.0 0.0 1.0 1.0 0.0 1.0 0.0
8
1.0 0.0 0.0 1.0 1.0 0.0 0.0 1.0
8
1.0 0.0 0.0 1.0 1.0 0.0 0.0 1.0
8
1.0 0.0 1.0 0.0 1.0 0.0 0.0 1.0
8
1.0 0.0 1.0 0.0 0.0 1.0 0.0 1.0
8
0.0 1.0 1.0 0.0 1.0 0.0 0.0 1.0
8
0.0 1.0 0.0 1.0 1.0 0.0 1.0 0.0
8
0.0 1.0 0.0 1.0 1.0 0.0 1.0 0.0
8
1.0 0.0 1.0 0.0 0.0 1.0 0.0 1.0
8
0.0 1.0 1.0 0.0 0.0 1.0 1.0 0.0
8
1.0 0.0 0.0 1.0 0.0 1.0 1.0 0.0
8
1.0 0.0 0.0 1.0 0.0 1.0 0.0 1.0
8
0.802632 0.197368 0.565958 0.434042 0.0447511 0.955249 0.447355 0.552645
8
0.728053 0.271947 0.199885 0.800115 0.538244 0.461756 0.0723329 0.927667
8
1.0 0.0 0.0 1.0 0.0 1.0 0.0 1.0
8
1.0 0.0 0.0 1.0 0.0 1.0 1.0 0.0
8
0.0 1.0 1.0 0.0 0.0 1.0 0.0 1.0
8
1.0 0.0 1.0 0.0 0.0 1.0 0.0 1.0
4
0.0 1.0 1.0 0.0
8
0.790132 0.209868 0.42533 0.57467 0.374304 0.625696 0.561372 0.438628
8
1.0 0.0 0.0 1.0 1.0 0.0 1.0 0.0
8
1.0 0.0 1.0 0.0 0.0 1.0 0.0 1.0
8
0.687649 0.312351 0.420649 0.579351 0.509992 0.490008 0.836423 0.163577
8
1.0 0.0 1.0 0.0 1.0 0.0 0.0 1.0
8
1.0 0.0 0.0 1.0 0.0 1.0 1.0 0.0
8
0.0 1.0 0.0 1.0 1.0 0.0 0.0 1.0
8
1.0 0.0 1.0 0.0 0.0 1.0 0.0 1.0
8
0.0 1.0 0.0 1.0 1.0 0.0 0.0 1.0
8
0.0 1.0 1.0 0.0 1.0 0.0 1.0 0.0
8
1.0 0.0 0.0 1.0 0.0 1.0 1.0 0.0
8
1.0 0.0 1.0 0.0 1.0 0.0 0.0 1.0
8
1.0 0.0 0.0 1.0 0.0 1.0 1.0 0.0
8
1.0 0.0 1.0 0.0 1.0 0.0 0.0 1.0
8
1.0 0.0 0.0 1.0 1.0 0.0 1.0 0.0
8
0.0 1.0 1.0 0.0 0.0 1.0 0.0 1.0
8
0.759169 0.240831 0.0271037 0.972896 0.480577 0.519423 0.924471 0.0755287
8
1.0 0.0 1.0 0.0 0.0 1.0 1.0 0.0
8
0.0687658 0.931234 0.239595 0.760405 0.599911 0.400089 0.365411 0.634589
8
0.985972 0.0140279 0.219269 0.780731 0.758941 0.241059 0.325786 0.674214
8
0.0 1.0 1.0 0.0 1.0 0.0 1.0 0.0
8
0.0 1.0 1.0 0.0 0.0 1.0 0.0 1.0
4
0.0 1.0 1.0 0.0
8
0.0 1.0 1.0 0.0 1.0 0.0 1.0 0.0
8
1.0 0.0 0.0 1.0 0.0 1.0 1.0 0.0
8
0.0 1.0 1.0 0.0 0.0 1.0 0.0 1.0
8
1.0 0.0 1.0 0.0 1.0 0.0 0.0 1.0
8
0.0 1.0 1.0 0.0 1.0 0.0 0.0 1.0
8
1.0 0.0 0.0 1.0 1.0 0.0 0.0 1.0
8
0.0 1.0 1.0 0.0 1.0 0.0 1.0 0.0
8
0.71886 0.28114 0.103931 0.896069 0.986345 0.0136552 0.803821 0.196179
8
0.666987 0.333013 0.254195 0.745805 0.404268 0.595732 0.333602 0.666398
8
0.759948 0.240052 0.326003 0.673997 0.82733 0.17267 0.287569 0.712431
8
1.0 0.0 1.0 0.0 0.0 1.0 0.0 1.0
8
0.409031 0.590969 0.235052 0.764948 0.99025 0.00974968 0.227406 0.772594
8
0.0 1.0 1.0 0.0 0.0 1.0 1.0 0.0
8
1.0 0.0 1.0 0.0 1.0 0.0 0.0 1.0
8
0.0 1.0 1.0 0.0 0.0 1.0 0.0 1.0
8
0.706818 0.293182 0.662568 0.337432 0.105198 0.894802 0.417042 0.582958
8
1.0 0.0 1.0 0.0 0.0 1.0 0.0 1.0
8
0.572637 0.427363 0.567268 0.432732 0.2198 0.7802 0.294134 0.705866
8
0.321824 0.678176 0.782401 0.217599 0.133654 0.866346 0.0637754 0.936225
8
1.0 0.0 1.0 0.0 1.0 0.0 0.0 1.0
8
1.0 0.0 1.0 0.0 0.0 1.0 1.0 0.0
8
0.0 1.0 1.0 0.0 1.0 0.0 1.0 0.0
4
0.0 1.0 1.0 0.0
8
1.0 0.0 0.0 1.0 1.0 0.0 0.0 1.0
8
0.0 1.0 0.0 1.0 1.0 0.0 0.0 1.0
8
1.0 0.0 0.0 1.0 1.0 0.0 0.0 1.0
8
0.0 1.0 0.0 1.0 0.0 1.0 1.0 0.0
8
0.383033 0.616967 0.594379 0.405621 0.216032 0.783968 0.821415 0.178585
8
0.0 1.0 1.0 0.0 0.0 1.0 1.0 0.0
8
1.0 0.0 0.0 1.0 0.0 1.0 1.0 0.0
8
1.0 0.0 1.0 0.0 0.0 1.0 0.0 1.0
8
0.141286 0.858714 0.312502 0.687498 0.189322 0.810678 0.5909 0.4091
8
0.388532 0.611468 0.597022 0.402978 0.207254 0.792746 0.150813 0.849187
8
1.0 0.0 0.0 1.0 1.0 0.0 1.0 0.0
8
1.0 0.0 1.0 0.0 0.0 1.0 1.0 0.0
8
0.0 1.0 1.0 0.0 0.0 1.0 1.0 0.0
8
1.0 0.0 0.0 1.0 0.0 1.0 0.0 1.0
8
0.640464 0.359536 0.26722 0.73278 0.100121 0.899879 0.231364 0.768636
8
1.0 0.0 1.0 0.0 1.0 0.0 0.0 1.0
8
0.0 1.0 0.0 1.0 1.0 0.0 1.0 0.0
8
0.210977 0.789023 0.248832 0.751168 0.404577 0.595423 0.284956 0.715044
8
1.0 0.0 1.0 0.0 1.0 0.0 0.0 1.0
8
1.0 0.0 0.0 1.0 0.0 1.0 1.0 0.0
8
1.0 0.0 0.0 1.0 0.0 1.0 0.0 1.0
8
1.0 0.0 1.0 0.0 0.0 1.0 0.0 1.0
4
1.0 0.0 0.0 1.0
8
1.0 0.0 0.0 1.0 1.0 0.0 0.0 1.0
8
0.0 1.0 1.0 0.0 1.0 0.0 1.0 0.0
8
1.0 0.0 0.0 1.0 0.0 1.0 0.0 1.0
8
0.169379 0.830621 0.938221 0.0617789 0.0379654 0.962035 0.39981 0.60019
8
1.0 0.0 1.0 0.0 1.0 0.0 0.0 1.0
8
1.0 0.0 1.0 0.0 0.0 1.0 0.0 1.0
8
0.0 1.0 1.0 0.0 0.0 1.0 0.0 1.0
8
0.492477 0.507523 0.210168 0.789832 0.540531 0.459469 0.0515932 0.948407
8
0.0 1.0 0.0 1.0 1.0 0.0 0.0 1.0
8
1.0 0.0 1.0 0.0 0.0 1.0 1.0 0.0
8
0.0 1.0 0.0 1.0 0.0 1.0 1.0 0.0
8
0.554047 0.445953 0.250977 0.749023 0.788768 0.211232 0.118489 0.881511
8
1.0 0.0 1.0 0.0 0.0 1.0 1.0 0.0
8
0.116907 0.883093 0.439934 0.560066 0.435945 0.564055 0.1685 0.8315
8
0.517617 0.482383 0.318369 0.681631 0.980048 0.0199516 0.449036 0.550964
8
1.0 0.0 1.0 0.0 1.0 0.0 0.0 1.0
8
0.0 1.0 1.0 0.0 1.0 0.0 0.0 1.0
8
0.0 1.0 0.0 1.0 0.0 1.0 1.0 0.0
8
0.19196 0.80804 0.279695 0.720305 0.690264 0.309736 0.81639 0.18361
8
1.0 0.0 1.0 0.0 1.0 0.0 0.0 1.0
8
0.0 1.0 1.0 0.0 1.0 0.0 0.0 1.0
8
0.157063 0.842937 0.886435 0.113565 0.53811 0.46189 0.250708 0.749292
4
0.0 1.0 1.0 0.0
8
0.417803 0.582197 0.869956 0.130044 0.0426227 0.957377 0.952674 0.047326
8
0.689943 0.310057 0.738522 0.261478 0.782603 0.217397 0.455753 0.544247
8
0.0622985 0.937701 0.146017 0.853983 0.746873 0.253127 0.571759 0.428241
8
0.0 1.0 0.0 1.0 1.0 0.0 1.0 0.0
8
1.0 0.0 0.0 1.0 0.0 1.0 0.0 1.0
8
1.0 0.0 0.0 1.0 1.0 0.0 1.0 0.0
8
1.0 0.0 0.0 1.0 0.0 1.0 0.0 1.0
8
0.0 1.0 1.0 0.0 0.0 1.0 0.0 1.0
8
1.0 0.0 0.0 1.0 0.0 1.0 0.0 1.0
8
1.0 0.0 0.0 1.0 1.0 0.0 1.0 0.0
8
1.0 0.0 0.0 1.0 1.0 0.0 1.0 0.0
8
0.0 1.0 0.0 1.0 0.0 1.0 1.0 0.0
8
0.0 1.0 0.0 1.0 1.0 0.0 0.0 1.0
8
0.0 1.0 0.0 1.0 1.0 0.0 1.0 0.0
8
0.0 1.0 1.0 0.0 0.0 1.0 0.0 1.0
8
1.0 0.0 0.0 1.0 0.0 1.0 1.0 0.0
8
0.0 1.0 1.0 0.0 1.0 0.0 1.0 0.0
8
1.0 0.0 0.0 1.0 1.0 0.0 1.0 0.0
8
1.0 0.0 1.0 0.0 0.0 1.0 1.0 0.0
8
1.0 0.0 0.0 1.0 1.0 0.0 1.0 0.0
8
0.0 1.0 1.0 0.0 0.0 1.0 1.0 0.0
8
0.0 1.0 0.0 1.0 1.0 0.0 0.0 1.0